Route #1: 25 26 66 65 105 145 185 186 187 227 226 225 224 223 222 182 183 184 144 104 64 63 23 24
Route #2: 31 71 72 112 151 191 192 232 231 230 229 228 188 189 190 150 149 148 147 146 106 107 67 27
Route #3: 28 29 30 70 69 68 108 109 110 111 152 153 193 233 234 235 195 194 154 113 114 115 76 75 74 73 32 33
Route #4: 2 42 41 81 120 119 159 200 161 201 240 239 238 237 236 196 155 156 116 117 77 39 38 37 36 35 34
Route #5: 3 43 44 84 83 82 122 121 160 199 198 197 157 158 118 78 79 80 40 1
Route #6: 6 46 86 126 166 167 207 206 205 165 164 204 203 202 162 163 123 124 125 85 45 5 4
Route #7: 7 47 87 127 128 168 208 209 169 170 210 211 212 172 171 132 131 130 129 89 88 48 8
Route #8: 11 10 9 49 50 51 90 91 92 52 53 54 55 96 136 137 138 98 97 57 58 59 19 18 17
Route #9: 15 16 56 95 135 134 174 175 176 177 178 218 217 216 215 214 213 173 133 93 94 14 13 12
Route #10: 22 62 61 101 102 103 143 142 141 181 221 220 219 179 180 140 139 99 100 60 20 21
Cost 5941
